Route #1: 13 35 45 20 41 59 8 39 40
Route #2: 66 68 38 56 62 29
Route #3: 53 2 33 49 9 30 51 6 3 15 44
Route #4: 14 25 11 63 16 37 5 46 54
Route #5: 26 50 10 17 32 1 36 48
Route #6: 34 47 4 60 55 65 27
Route #7: 7 67 21 61 64 18 31
Route #8: 28 42 57 43 52 24
Route #9: 19 23 58 12 22
Cost 1194.4464454048825